SDVRP instances/p02/p02_1030_tsplib0_split0.vrp
NAME:.\SDVRP_split
BEST_KNOWN: 0
COMMENT: 0
DIMENSION: 346
CAPACITY: 140
EDGE_WEIGHT_FORMAT: FUNCTION
EDGE_WEIGHT_TYPE: EXACT_2D
NODE_COORD_SECTION
1 0.00000 0.00000
2 -18 -18
3 -18 -18
4 -18 -18
5 -18 -18
6 -4 -14
7 -4 -14
8 -4 -14
9 -4 -14
10 -4 -14
11 -4 -14
12 -19 5
13 -19 5
14 -19 5
15 -19 5
16 -19 5
17 -19 5
18 -19 5
19 5 -5
20 5 -5
21 15 -20
22 15 -20
23 15 -20
24 15 -20
25 15 -20
26 15 -20
27 -7 -6
28 -7 -6
29 -7 -6
30 -7 -6
31 -7 -6
32 10 10
33 10 10
34 10 10
35 10 10
36 10 10
37 10 10
38 10 10
39 10 10
40 15 5
41 15 5
42 15 5
43 15 5
44 -14 19
45 -14 19
46 -14 19
47 -14 19
48 -14 19
49 -14 19
50 0 26
51 15 25
52 15 25
53 15 25
54 -5 11
55 -5 11
56 -5 11
57 -5 11
58 -5 11
59 -5 11
60 22 -5
61 22 -5
62 22 -5
63 22 -5
64 22 -5
65 22 -5
66 22 -5
67 22 -5
68 22 17
69 22 -16
70 22 -16
71 22 -16
72 22 -16
73 22 -16
74 22 -16
75 -19 -4
76 -19 -4
77 -19 -4
78 -7 4
79 -7 4
80 -7 4
81 -31 16
82 22 8
83 22 8
84 22 8
85 22 8
86 26 -26
87 26 -26
88 4 -27
89 4 -27
90 4 -27
91 -14 -27
92 -14 -27
93 -14 -27
94 -14 -27
95 -29 -12
96 -29 -12
97 -29 -12
98 -29 -12
99 -29 -12
100 -33 3
101 -33 3
102 -33 3
103 -23 24
104 -23 24
105 -23 24
106 1 6
107 1 6
108 1 6
109 1 6
110 1 6
111 1 6
112 1 6
113 15 -6
114 -5 -24
115 -5 -24
116 12 -14
117 12 -14
118 12 -14
119 12 -14
120 12 -14
121 3 -14
122 3 -14
123 3 -14
124 -9 36
125 -9 36
126 -9 36
127 -9 36
128 -18 13
129 -18 13
130 -18 13
131 -14 -11
132 -14 -11
133 -14 -11
134 -14 -11
135 10 0
136 10 0
137 10 0
138 10 0
139 10 0
140 10 0
141 10 0
142 15 10
143 15 10
144 15 10
145 15 10
146 14 -30
147 14 -30
148 14 -30
149 14 -30
150 14 -30
151 14 -30
152 14 -30
153 14 -30
154 20 -25
155 20 -25
156 7 26
157 7 26
158 7 26
159 7 26
160 7 26
161 7 26
162 7 26
163 7 26
164 -10 20
165 -10 20
166 -10 20
167 -10 20
168 -10 20
169 -10 20
170 -10 20
171 -10 20
172 -10 10
173 -10 10
174 -10 10
175 -10 10
176 -28 -23
177 -28 -23
178 -28 -23
179 -28 -23
180 -28 -23
181 -28 -23
182 -25 -26
183 -25 -26
184 -24 -21
185 -24 -21
186 -24 -21
187 -24 -21
188 -19 8
189 -19 8
190 -19 8
191 -19 8
192 -19 8
193 10 -10
194 10 -10
195 10 -10
196 10 -10
197 10 -10
198 11 2
199 11 2
200 10 -25
201 10 -25
202 10 -25
203 10 -25
204 10 -25
205 10 -25
206 10 -25
207 10 -25
208 8 -19
209 8 -19
210 8 -19
211 8 -19
212 8 -19
213 8 -19
214 8 -19
215 -28 -2
216 -28 -2
217 -28 -2
218 -28 -2
219 -25 16
220 -25 16
221 -25 16
222 -25 16
223 -11 -1
224 -11 -1
225 -11 -1
226 -11 -1
227 -11 -1
228 14 -2
229 14 -2
230 14 -2
231 14 -2
232 14 -2
233 15 17
234 15 17
235 15 17
236 27 1
237 27 1
238 27 1
239 27 1
240 27 1
241 27 1
242 -30 30
243 -30 30
244 -30 30
245 -30 30
246 -30 30
247 -30 30
248 -30 30
249 -34 -15
250 -34 -15
251 -34 -15
252 -34 -15
253 -34 -15
254 -34 -15
255 -34 -15
256 25 -13
257 25 -13
258 25 -13
259 0 20
260 0 20
261 0 20
262 0 20
263 0 20
264 0 20
265 30 24
266 30 24
267 30 24
268 30 24
269 30 24
270 30 24
271 24 -36
272 24 -36
273 24 -36
274 24 -36
275 -4 -34
276 -4 -34
277 -4 -34
278 -4 -34
279 -4 -34
280 -10 -20
281 -10 -20
282 -20 -10
283 -20 -10
284 -20 -10
285 -25 -35
286 -25 -35
287 -25 -35
288 10 30
289 10 30
290 10 30
291 10 30
292 17 32
293 17 32
294 17 32
295 17 32
296 17 32
297 17 32
298 17 32
299 17 32
300 5 2
301 5 2
302 5 2
303 5 2
304 -2 -7
305 -2 -7
306 -2 -7
307 10 -36
308 10 -36
309 10 -36
310 10 -36
311 10 -36
312 10 -36
313 10 -36
314 10 -36
315 26 -32
316 26 -32
317 26 -32
318 26 -32
319 26 -32
320 19 -35
321 19 -35
322 19 -35
323 19 -35
324 19 -35
325 19 -35
326 19 -35
327 -5 20
328 -5 20
329 -5 20
330 -5 20
331 -5 20
332 -5 20
333 -13 -16
334 -13 -16
335 -13 -16
336 -13 -16
337 0 -20
338 0 -20
339 0 -20
340 0 -20
341 0 -20
342 0 -20
343 0 -20
344 0 -20
345 0 -3
346 0 -3
DEMAND_SECTION
1 0
2 28
3 7
4 1
5 1
6 14
7 7
8 1
9 1
10 1
11 1
12 14
13 1
14 1
15 1
16 1
17 1
18 1
19 28
20 1
21 28
22 7
23 1
24 1
25 1
26 1
27 28
28 7
29 1
30 1
31 1
32 14
33 7
34 1
35 1
36 1
37 1
38 1
39 1
40 14
41 1
42 1
43 1
44 14
45 1
46 1
47 1
48 1
49 1
50 14
51 28
52 7
53 1
54 14
55 7
56 1
57 1
58 1
59 1
60 14
61 7
62 1
63 1
64 1
65 1
66 1
67 1
68 28
69 28
70 1
71 1
72 1
73 1
74 1
75 14
76 7
77 1
78 14
79 1
80 1
81 28
82 28
83 7
84 1
85 1
86 28
87 1
88 14
89 1
90 1
91 28
92 1
93 1
94 1
95 28
96 1
97 1
98 1
99 1
100 28
101 1
102 1
103 28
104 7
105 1
106 28
107 1
108 1
109 1
110 1
111 1
112 1
113 14
114 28
115 7
116 14
117 1
118 1
119 1
120 1
121 14
122 1
123 1
124 28
125 7
126 1
127 1
128 28
129 7
130 1
131 28
132 7
133 1
134 1
135 14
136 1
137 1
138 1
139 1
140 1
141 1
142 28
143 7
144 1
145 1
146 14
147 7
148 1
149 1
150 1
151 1
152 1
153 1
154 28
155 7
156 14
157 7
158 1
159 1
160 1
161 1
162 1
163 1
164 14
165 7
166 1
167 1
168 1
169 1
170 1
171 1
172 28
173 7
174 1
175 1
176 14
177 1
178 1
179 1
180 1
181 1
182 14
183 1
184 28
185 1
186 1
187 1
188 28
189 1
190 1
191 1
192 1
193 28
194 7
195 1
196 1
197 1
198 14
199 7
200 14
201 7
202 1
203 1
204 1
205 1
206 1
207 1
208 14
209 7
210 1
211 1
212 1
213 1
214 1
215 28
216 7
217 1
218 1
219 28
220 1
221 1
222 1
223 28
224 1
225 1
226 1
227 1
228 28
229 1
230 1
231 1
232 1
233 14
234 1
235 1
236 28
237 7
238 1
239 1
240 1
241 1
242 28
243 1
244 1
245 1
246 1
247 1
248 1
249 28
250 1
251 1
252 1
253 1
254 1
255 1
256 14
257 7
258 1
259 28
260 1
261 1
262 1
263 1
264 1
265 14
266 7
267 1
268 1
269 1
270 1
271 14
272 7
273 1
274 1
275 28
276 7
277 1
278 1
279 1
280 14
281 7
282 14
283 7
284 1
285 14
286 7
287 1
288 14
289 7
290 1
291 1
292 14
293 7
294 1
295 1
296 1
297 1
298 1
299 1
300 28
301 7
302 1
303 1
304 14
305 1
306 1
307 28
308 7
309 1
310 1
311 1
312 1
313 1
314 1
315 28
316 7
317 1
318 1
319 1
320 28
321 7
322 1
323 1
324 1
325 1
326 1
327 28
328 7
329 1
330 1
331 1
332 1
333 28
334 7
335 1
336 1
337 28
338 7
339 1
340 1
341 1
342 1
343 1
344 1
345 14
346 1
DEPOT_SECTION
1
-1
EOF