SDVRP instances/p02/p02_1030_tsplib0_split0.sol
345 -4 186 184 185 183 178 176 175 177 179 180 182 181 285 286 284 91 93 92 90 280 279 -15 13 17 11 12 14 16 190 187 191 188 189 127 129 128 47 46 44 48 45 43 168 165 167 163 169 166 164 170 -19 18 193 192 112 228 229 230 227 231 197 198 300 -23 21 24 25 325 320 324 322 323 321 319 273 270 271 272 318 317 316 314 315 86 85 -26 2 3 1 334 333 335 332 5 7 6 8 10 9 303 -30 27 29 28 132 131 133 130 281 283 282 74 75 76 226 222 224 223 225 -35 37 36 33 31 266 265 267 268 269 264 67 144 143 142 141 299 301 302 -38 32 34 233 234 232 52 51 50 292 291 293 298 297 294 296 295 289 287 290 288 162 161 157 156 158 155 159 160 -39 40 42 41 81 83 84 82 235 240 236 238 237 239 62 61 63 65 64 66 59 60 138 136 134 139 140 135 137 -57 55 58 331 330 327 326 328 329 124 125 123 126 49 262 263 261 258 259 260 -77 78 79 171 54 56 53 106 107 105 108 111 109 110 -89 88 87 309 312 311 313 310 307 308 306 145 147 152 151 150 148 149 146 199 201 202 205 204 200 203 206 209 208 210 207 213 211 212 -96 94 98 95 97 251 249 248 250 252 254 253 99 100 101 215 216 214 217 -122 121 120 342 340 343 338 339 341 337 336 274 275 278 276 277 113 114 305 304 -174 172 173 102 104 103 244 245 242 246 247 241 243 80 218 219 220 221 -194 196 195 116 118 117 119 115 22 20 154 153 73 70 71 68 69 72 257 256 255 -344 345 0 





OBJ=
1133.089
BEST_KNOWN=
0.000